011100000000000000
100000000000000011
100000000000010100
100000000000101000
000001100001000000
000010010010000000
000010001000001000
000001000100000100
000000100000011000
000000010000100100
000001000000010001
000010000000100010
000100000101000000
001000001010000000
000100101000000000
001000010100000000
010000000001000001
010000000010000010
